NAME: instance_2132
TYPE: TSP
DIMENSION: 20
EDGE_WEIGHT_TYPE: EUC_2D
NODE_COORD_SECTION
0 14.51 12.19
1 23.48 95.67
2 87.43 99.98
3 74.96 84.16
4 95.66 65.52
5 60.58 31.87
6 2.25 93.21
7 72.60 89.55
8 42.86 60.23
9 85.22 16.37
10 14.36 73.61
11 94.83 23.41
12 39.23 65.52
13 19.27 0.67
14 33.90 31.19
15 0.30 68.14
16 47.63 98.19
17 2.49 43.39
18 55.18 56.75
19 11.94 2.46
EOF
